Gurobi 11.0.1 (win64) logging started Sun Mar 17 03:42:31 2024

Set parameter LogFile to value "res/logfile/neos-1456979log.txt"

Gurobi 11.0.1 (win64) logging started Sun Mar 17 03:42:31 2024

Set parameter LogFile to value "res/logfile/neos-1456979log.txt"
Gurobi Optimizer version 11.0.1 build v11.0.1rc0 (win64 - Windows 11.0 (22621.2))

CPU model: AMD Ryzen Threadripper PRO 5975WX 32-Cores, instruction set [SSE2|AVX|AVX2]
Thread count: 32 physical cores, 64 logical processors, using up to 10 threads

Optimize a model with 6805 rows, 4605 columns and 40510 nonzeros
Model fingerprint: 0x79b46bde
Variable types: 180 continuous, 4425 integer (4245 binary)
Coefficient statistics:
  Matrix range     [1e+00, 5e+02]
  Objective range  [1e+00, 4e+01]
  Bounds range     [1e+00, 5e+02]
  RHS range        [1e+00, 5e+02]
Presolve removed 210 rows and 10 columns
Presolve time: 0.05s
Presolved: 6595 rows, 4595 columns, 35740 nonzeros
Variable types: 175 continuous, 4420 integer (4245 binary)

Root relaxation: objective 1.540000e+02, 681 iterations, 0.02 seconds (0.03 work units)

    Nodes    |    Current Node    |     Objective Bounds      |     Work
 Expl Unexpl |  Obj  Depth IntInf | Incumbent    BestBd   Gap | It/Node Time

     0     0  154.00000    0   40          -  154.00000      -     -    0s
     0     0  154.00000    0   86          -  154.00000      -     -    0s
     0     0  154.00000    0   94          -  154.00000      -     -    0s
     0     0  163.86700    0  146          -  163.86700      -     -    0s
     0     0  165.64157    0  162          -  165.64157      -     -    0s
     0     0  165.64157    0  172          -  165.64157      -     -    0s
     0     0  170.00000    0  146          -  170.00000      -     -    0s
     0     0  170.00000    0  147          -  170.00000      -     -    0s
     0     0  170.18972    0  192          -  170.18972      -     -    1s
     0     0  170.23077    0  155          -  170.23077      -     -    1s
H    0     0                     205.0000000  170.23077  17.0%     -    1s
     0     0  170.23077    0  155  205.00000  170.23077  17.0%     -    1s
     0     0  171.00000    0  192  205.00000  171.00000  16.6%     -    1s
     0     0  171.00000    0  159  205.00000  171.00000  16.6%     -    1s
     0     0  171.13333    0  165  205.00000  171.13333  16.5%     -    1s
     0     0  171.13333    0  165  205.00000  171.13333  16.5%     -    1s
     0     0  171.13333    0  187  205.00000  171.13333  16.5%     -    1s
     0     0  171.18182    0  176  205.00000  171.18182  16.5%     -    1s
     0     0  171.18182    0  176  205.00000  171.18182  16.5%     -    1s
H    0     0                     200.0000000  171.18182  14.4%     -    1s
     0     0  171.18182    0  138  200.00000  171.18182  14.4%     -    1s
     0     0  171.18182    0  162  200.00000  171.18182  14.4%     -    1s
     0     0  171.38292    0  206  200.00000  171.38292  14.3%     -    1s
     0     0  172.00000    0  204  200.00000  172.00000  14.0%     -    1s
     0     0  172.00000    0  157  200.00000  172.00000  14.0%     -    1s
     0     0  172.00000    0  137  200.00000  172.00000  14.0%     -    2s
     0     0  172.00000    0  132  200.00000  172.00000  14.0%     -    2s
     0     0  172.62500    0  185  200.00000  172.62500  13.7%     -    2s
     0     0  172.62500    0  180  200.00000  172.62500  13.7%     -    2s
     0     0  172.62500    0  189  200.00000  172.62500  13.7%     -    2s
     0     0  172.62500    0  174  200.00000  172.62500  13.7%     -    2s
     0     0  172.62500    0  169  200.00000  172.62500  13.7%     -    2s
     0     0  172.62500    0  126  200.00000  172.62500  13.7%     -    2s
     0     0  172.62500    0  137  200.00000  172.62500  13.7%     -    2s
H    0     0                     192.0000000  172.62500  10.1%     -    2s
     0     0  172.62500    0  107  192.00000  172.62500  10.1%     -    2s
     0     0  172.62500    0  164  192.00000  172.62500  10.1%     -    2s
     0     0  172.66667    0  125  192.00000  172.66667  10.1%     -    2s
     0     0  172.66667    0  103  192.00000  172.66667  10.1%     -    2s
     0     0  172.70000    0   40  192.00000  172.70000  10.1%     -    3s
     0     0  172.70000    0   90  192.00000  172.70000  10.1%     -    3s
     0     0  172.70000    0  167  192.00000  172.70000  10.1%     -    3s
     0     0  172.70000    0   89  192.00000  172.70000  10.1%     -    3s
     0     0  172.70000    0  199  192.00000  172.70000  10.1%     -    3s
     0     0  172.70000    0  144  192.00000  172.70000  10.1%     -    3s
     0     0  172.70000    0  157  192.00000  172.70000  10.1%     -    3s
     0     0  172.70000    0  168  192.00000  172.70000  10.1%     -    3s
     0     0  172.70000    0  119  192.00000  172.70000  10.1%     -    3s
     0     0  172.70000    0  203  192.00000  172.70000  10.1%     -    3s
     0     0  172.70000    0  226  192.00000  172.70000  10.1%     -    4s
     0     0  172.70000    0  182  192.00000  172.70000  10.1%     -    4s
     0     0  172.70000    0  143  192.00000  172.70000  10.1%     -    4s
     0     0  172.70000    0  133  192.00000  172.70000  10.1%     -    4s
     0     2  172.75000    0   85  192.00000  172.75000  10.0%     -    4s
    65    76  182.00000    8  140  192.00000  173.00000  9.90%   189    5s
H   75    86                     181.0000000  173.00000  4.42%   183    6s
H   78    86                     178.0000000  173.00000  2.81%   180    6s
*  540   142              13     177.0000000  173.75000  1.84%  98.1    7s
*  682    70              10     176.0000000  174.50000  0.85%  91.4    7s

Cutting planes:
  Learned: 14
  Gomory: 11
  Lift-and-project: 1
  Cover: 4
  Implied bound: 349
  MIR: 128
  Zero half: 12
  RLT: 122
  Relax-and-lift: 138
  BQP: 11
  PSD: 20

Explored 782 nodes (82841 simplex iterations) in 7.38 seconds (8.77 work units)
Thread count was 10 (of 64 available processors)

Solution count 7: 176 177 178 ... 205

Optimal solution found (tolerance 1.00e-04)
Best objective 1.760000000000e+02, best bound 1.760000000000e+02, gap 0.0000%

User-callback calls 2378, time in user-callback 0.00 sec
